5 5
0 32 2 53 1 59 4 69 3 62
2 4 4 86 0 18 3 99 1 81
2 56 4 24 0 66 3 13 1 62
2 54 1 15 4 69 3 3 0 37
0 37 3 3 4 63 1 35 2 52
-1
0 1 2 3 5
0 1 3 4 5
0 1 5
0 1 2 4 5
0 1 4 5
-2
43 120 173 292
5 118 211 312
67 350
68 69 147 232
39 181 285

358 9
0 20 7 12 19
2 23 16 9 14
5 1 10 15 24
21 8 13 4 18
6 22 11 3 17
